NAME : Bre-2
TYPE : CVRP
DIMENSION : 101
EDGE_WEIGHT_TYPE : EUC_2D 
CAPACITY : 100
NODE_COORD_SECTION
1 50 102
2 5 28
3 15 28
4 25 28
5 35 28
6 45 28
7 55 28
8 65 28
9 75 28
10 85 28
11 95 28
12 5 33
13 15 33
14 25 33
15 35 33
16 45 33
17 55 33
18 65 33
19 75 33
20 85 33
21 95 33
22 5 38
23 15 38
24 25 38
25 35 38
26 45 38
27 55 38
28 65 38
29 75 38
30 85 38
31 95 38
32 5 43
33 15 43
34 25 43
35 35 43
36 45 43
37 55 43
38 65 43
39 75 43
40 85 43
41 95 43
42 5 48
43 15 48
44 25 48
45 35 48
46 45 48
47 55 48
48 65 48
49 75 48
50 85 48
51 95 48
52 5 53
53 15 53
54 25 53
55 35 53
56 45 53
57 55 53
58 65 53
59 75 53
60 85 53
61 95 53
62 5 58
63 15 58
64 25 58
65 35 58
66 45 58
67 55 58
68 65 58
69 75 58
70 85 58
71 95 58
72 5 63
73 15 63
74 25 63
75 35 63
76 45 63
77 55 63
78 65 63
79 75 63
80 85 63
81 95 63
82 5 68
83 15 68
84 25 68
85 35 68
86 45 68
87 55 68
88 65 68
89 75 68
90 85 68
91 95 68
92 5 73
93 15 73
94 25 73
95 35 73
96 45 73
97 55 73
98 65 73
99 75 73
100 85 73
101 95 73
DEMAND_SECTION
1 0
2 10
3 10
4 10
5 10
6 10
7 10
8 10
9 10
10 10
11 10
12 10
13 10
14 10
15 10
16 10
17 10
18 10
19 10
20 10
21 10
22 10
23 10
24 10
25 10
26 10
27 10
28 10
29 10
30 10
31 10
32 10
33 10
34 10
35 10
36 10
37 10
38 10
39 10
40 10
41 10
42 10
43 10
44 10
45 10
46 10
47 10
48 10
49 10
50 10
51 10
52 10
53 10
54 10
55 10
56 10
57 10
58 10
59 10
60 10
61 10
62 10
63 10
64 10
65 10
66 10
67 10
68 10
69 10
70 10
71 10
72 10
73 10
74 10
75 10
76 10
77 10
78 10
79 10
80 10
81 10
82 10
83 10
84 10
85 10
86 10
87 10
88 10
89 10
90 10
91 10
92 10
93 10
94 10
95 10
96 10
97 10
98 10
99 10
100 10
101 10
DEPOT_SECTION
1 
-1
EOF
